
Gurobi 7.5.2 (linux64) logging started Sat Jul  7 15:59:37 2018

Changed value of parameter LogFile to result/ilp/simNo_1-n_100-m_40-s_7-minVAF_0.05-cov_10000-k_2-fn_0.15-fp_0.0001-na_0.15.ILP.gurobiSolverLog
   Prev: gurobi.log  Default: 
Changed value of parameter TimeLimit to 86400.0
   Prev: 1e+100  Min: 0.0  Max: 1e+100  Default: 1e+100
Optimize a model with 639293 rows, 10765 columns and 1940420 nonzeros
Variable types: 0 continuous, 10765 integer (10765 binary)
Coefficient statistics:
  Matrix range     [1e-04, 4e+00]
  Objective range  [1e+00, 2e+01]
  Bounds range     [1e+00, 1e+00]
  RHS range        [6e-02, 2e+00]
Found heuristic solution: objective -14733.29661
Presolve removed 139039 rows and 1119 columns (presolve time = 5s) ...
Presolve removed 207012 rows and 1792 columns (presolve time = 11s) ...
Presolve removed 207012 rows and 1792 columns
Presolve time: 14.05s
Presolved: 432281 rows, 8973 columns, 1297283 nonzeros
Variable types: 0 continuous, 8973 integer (8973 binary)
Presolved: 8973 rows, 441254 columns, 1306256 nonzeros

Presolve removed 8973 rows and 441254 columns

Root simplex log...

Iteration    Objective       Primal Inf.    Dual Inf.      Time
       0    3.3166665e+01   0.000000e+00   7.125700e+04     17s
   26890   -3.0901232e+02   0.000000e+00   2.293104e+05     20s
   49402   -3.5551441e+02   0.000000e+00   1.274906e+03     25s
   50209   -3.5582614e+02   0.000000e+00   0.000000e+00     26s
   50209   -3.5582614e+02   0.000000e+00   0.000000e+00     27s

Root relaxation: objective -3.558261e+02, 50209 iterations, 11.41 seconds
Total elapsed time = 59.43s
Total elapsed time = 88.58s

    Nodes    |    Current Node    |     Objective Bounds      |     Work
 Expl Unexpl |  Obj  Depth IntInf | Incumbent    BestBd   Gap | It/Node Time

     0     0 -355.82614    0  464 -14733.297 -355.82614  97.6%     -  107s
H    0     0                    -423.7582115 -355.82614  16.0%     -  110s
H    0     0                    -398.4341249 -355.82614  10.7%     -  111s
H    0     0                    -379.8144920 -355.82614  6.32%     -  113s
     0     0 -358.79344    0  457 -379.81449 -358.79344  5.53%     -  594s
H    0     0                    -379.4065977 -358.79344  5.43%     -  602s
     0     0 -358.79344    0  457 -379.40660 -358.79344  5.43%     -  619s
     0     0 -361.37583    0  474 -379.40660 -361.37583  4.75%     - 2801s
H    0     0                    -378.2288647 -361.37583  4.46%     - 2808s
     0     0 -361.37583    0  477 -378.22886 -361.37583  4.46%     - 2811s
     0     0 -362.75751    0  452 -378.22886 -362.75751  4.09%     - 4512s
     0     0 -362.75751    0  475 -378.22886 -362.75751  4.09%     - 4539s
     0     0 -362.96146    0  469 -378.22886 -362.96146  4.04%     - 5131s
     0     0 -362.96146    0  483 -378.22886 -362.96146  4.04%     - 5146s
     0     0 -363.31673    0  477 -378.22886 -363.31673  3.94%     - 5826s
H    0     0                    -376.6432374 -363.31673  3.54%     - 5834s
     0     0 -363.31673    0  477 -376.64324 -363.31673  3.54%     - 5836s
     0     0 -363.95056    0  477 -376.64324 -363.95056  3.37%     - 7145s
     0     0 -363.95056    0  491 -376.64324 -363.95056  3.37%     - 7156s
     0     0 -364.54517    0  493 -376.64324 -364.54517  3.21%     - 9928s
     0     0 -364.58481    0  498 -376.64324 -364.58481  3.20%     - 10844s
     0     0 -364.58481    0  498 -376.64324 -364.58481  3.20%     - 10848s
     0     0 -364.93966    0  432 -376.64324 -364.93966  3.11%     - 12904s
     0     0 -364.93966    0  434 -376.64324 -364.93966  3.11%     - 12911s
     0     0 -365.72118    0  490 -376.64324 -365.72118  2.90%     - 14131s
     0     0 -365.75517    0  494 -376.64324 -365.75517  2.89%     - 14257s
     0     0 -365.76864    0  496 -376.64324 -365.76864  2.89%     - 14292s
     0     0 -366.69091    0  418 -376.64324 -366.69091  2.64%     - 17144s
     0     0 -366.74732    0  418 -376.64324 -366.74732  2.63%     - 18756s
     0     0 -368.02510    0  432 -376.64324 -368.02510  2.29%     - 21330s
     0     0 -368.17890    0  428 -376.64324 -368.17890  2.25%     - 22633s
     0     0 -368.30565    0  429 -376.64324 -368.30565  2.21%     - 23183s
     0     0 -368.30565    0  432 -376.64324 -368.30565  2.21%     - 23189s
     0     0 -369.18399    0  420 -376.64324 -369.18399  1.98%     - 25915s
     0     0 -369.18399    0  464 -376.64324 -369.18399  1.98%     - 26043s
     0     0 -369.18399    0  438 -376.64324 -369.18399  1.98%     - 26066s
     0     0 -369.18399    0  439 -376.64324 -369.18399  1.98%     - 26071s
     0     0 -369.74116    0  406 -376.64324 -369.74116  1.83%     - 26080s
     0     0 -370.29097    0  424 -376.64324 -370.29097  1.69%     - 26089s
     0     0 -370.35234    0  424 -376.64324 -370.35234  1.67%     - 26092s
     0     0 -370.38658    0  424 -376.64324 -370.38658  1.66%     - 26097s
     0     0 -370.41589    0  424 -376.64324 -370.41589  1.65%     - 26102s
     0     0 -370.44456    0  423 -376.64324 -370.44456  1.65%     - 26107s
     0     0 -370.44456    0  423 -376.64324 -370.44456  1.65%     - 26108s
     0     0 -370.53593    0  429 -376.64324 -370.53593  1.62%     - 26114s
     0     0 -370.53593    0  428 -376.64324 -370.53593  1.62%     - 26118s
     0     0 -370.63473    0  434 -376.64324 -370.63473  1.60%     - 26125s
     0     0 -370.66626    0  436 -376.64324 -370.66626  1.59%     - 26130s
     0     0 -370.71642    0  434 -376.64324 -370.71642  1.57%     - 26136s
     0     0 -370.71843    0  433 -376.64324 -370.71843  1.57%     - 26139s
     0     0 -370.72003    0  434 -376.64324 -370.72003  1.57%     - 26140s
     0     0 -370.72509    0  433 -376.64324 -370.72509  1.57%     - 26145s
     0     0 -370.77464    0  427 -376.64324 -370.77464  1.56%     - 26151s
     0     0 -370.78512    0  437 -376.64324 -370.78512  1.56%     - 26155s
     0     0 -370.79169    0  436 -376.64324 -370.79169  1.55%     - 26157s
     0     0 -370.79169    0  436 -376.64324 -370.79169  1.55%     - 26158s
     0     0 -371.07674    0  432 -376.64324 -371.07674  1.48%     - 26166s
     0     0 -371.33377    0  430 -376.64324 -371.33377  1.41%     - 26173s
     0     0 -371.33377    0  432 -376.64324 -371.33377  1.41%     - 26175s
     0     0 -371.33409    0  437 -376.64324 -371.33409  1.41%     - 26178s
     0     0 -371.33579    0  438 -376.64324 -371.33579  1.41%     - 26184s
     0     0 -371.33579    0  438 -376.64324 -371.33579  1.41%     - 26185s
     0     0 -371.39148    0  433 -376.64324 -371.39148  1.39%     - 26190s
     0     0 -371.40049    0  439 -376.64324 -371.40049  1.39%     - 26198s
     0     0 -371.42740    0  440 -376.64324 -371.42740  1.38%     - 26203s
     0     0 -371.42969    0  437 -376.64324 -371.42969  1.38%     - 26206s
     0     0 -371.43043    0  438 -376.64324 -371.43043  1.38%     - 26207s
     0     0 -371.43098    0  435 -376.64324 -371.43098  1.38%     - 26210s
     0     0 -371.43098    0  433 -376.64324 -371.43098  1.38%     - 26214s
     0     0 -371.84779    0  396 -376.64324 -371.84779  1.27%     - 26221s
     0     0 -372.01616    0  425 -376.64324 -372.01616  1.23%     - 26228s
     0     0 -372.02295    0  424 -376.64324 -372.02295  1.23%     - 26233s
     0     0 -372.02386    0  426 -376.64324 -372.02386  1.23%     - 26236s
     0     0 -372.42389    0  432 -376.64324 -372.42389  1.12%     - 26241s
     0     0 -372.47710    0  431 -376.64324 -372.47710  1.11%     - 26247s
     0     0 -372.47710    0  435 -376.64324 -372.47710  1.11%     - 26248s
     0     0 -372.87911    0  433 -376.64324 -372.87911  1.00%     - 26252s
     0     0 -372.91401    0  430 -376.64324 -372.91401  0.99%     - 26259s
     0     0 -372.91612    0  436 -376.64324 -372.91612  0.99%     - 26262s
     0     0 -372.91612    0  436 -376.64324 -372.91612  0.99%     - 26263s
     0     0 -372.91612    0  432 -376.64324 -372.91612  0.99%     - 26266s
     0     0 -372.91612    0  431 -376.64324 -372.91612  0.99%     - 26268s
     0     0 -373.21818    0  429 -376.64324 -373.21818  0.91%     - 26273s
     0     0 -373.22003    0  430 -376.64324 -373.22003  0.91%     - 26276s
     0     0 -373.22003    0  431 -376.64324 -373.22003  0.91%     - 26278s
     0     0 -373.22003    0  429 -376.64324 -373.22003  0.91%     - 26280s
     0     0 -373.22809    0  429 -376.64324 -373.22809  0.91%     - 26282s
     0     0 -373.22809    0  430 -376.64324 -373.22809  0.91%     - 26284s
     0     0 -373.22809    0  361 -376.64324 -373.22809  0.91%     - 26338s
     0     0 -373.22809    0  331 -376.64324 -373.22809  0.91%     - 26341s
     0     0 -373.22809    0  420 -376.64324 -373.22809  0.91%     - 26368s
     0     0 -373.22809    0  410 -376.64324 -373.22809  0.91%     - 26370s
     0     0 -373.22809    0  404 -376.64324 -373.22809  0.91%     - 26401s
     0     0 -373.22809    0  404 -376.64324 -373.22809  0.91%     - 26785s
     0     0 -373.22809    0  464 -376.64324 -373.22809  0.91%     - 26844s
     0     0 -373.22809    0  478 -376.64324 -373.22809  0.91%     - 26849s
     0     0 -373.22809    0  451 -376.64324 -373.22809  0.91%     - 26851s
     0     0 -373.22809    0  471 -376.64324 -373.22809  0.91%     - 26852s
     0     0 -373.22809    0  476 -376.64324 -373.22809  0.91%     - 26853s
     0     0 -373.22809    0  476 -376.64324 -373.22809  0.91%     - 26854s
     0     0 -373.22809    0  382 -376.64324 -373.22809  0.91%     - 26858s
     0     0 -373.22809    0  463 -376.64324 -373.22809  0.91%     - 26861s
     0     0 -373.22809    0  411 -376.64324 -373.22809  0.91%     - 26861s
     0     0 -373.22809    0  413 -376.64324 -373.22809  0.91%     - 26861s
     0     0 -373.22809    0  413 -376.64324 -373.22809  0.91%     - 26862s
     0     0 -373.22809    0  418 -376.64324 -373.22809  0.91%     - 26862s
     0     0 -373.22809    0  408 -376.64324 -373.22809  0.91%     - 26862s
     0     0 -373.22809    0  408 -376.64324 -373.22809  0.91%     - 26862s
     0     0 -373.22809    0  397 -376.64324 -373.22809  0.91%     - 26862s
     0     0 -373.22809    0  379 -376.64324 -373.22809  0.91%     - 26862s
     0     0 -373.22809    0  400 -376.64324 -373.22809  0.91%     - 26863s
     0     0 -373.22809    0  404 -376.64324 -373.22809  0.91%     - 26863s
     0     0 -373.22809    0  407 -376.64324 -373.22809  0.91%     - 26863s
     0     0 -373.22809    0  401 -376.64324 -373.22809  0.91%     - 26864s
     0     0 -373.22809    0  410 -376.64324 -373.22809  0.91%     - 26864s
     0     0 -373.22809    0  411 -376.64324 -373.22809  0.91%     - 26865s
     0     0 -373.22809    0  411 -376.64324 -373.22809  0.91%     - 26866s
     0     0 -373.22809    0  463 -376.64324 -373.22809  0.91%     - 26868s
     0     0 -373.22809    0  456 -376.64324 -373.22809  0.91%     - 26868s
     0     0 -373.22809    0  437 -376.64324 -373.22809  0.91%     - 26868s
     0     0 -373.22809    0  436 -376.64324 -373.22809  0.91%     - 26868s
     0     0 -373.22809    0  449 -376.64324 -373.22809  0.91%     - 26868s
     0     0 -373.22809    0  449 -376.64324 -373.22809  0.91%     - 26868s
     0     0 -373.22809    0  436 -376.64324 -373.22809  0.91%     - 26869s
     0     0 -373.22809    0  447 -376.64324 -373.22809  0.91%     - 26869s
     0     0 -373.22809    0  419 -376.64324 -373.22809  0.91%     - 26869s
     0     0 -373.22809    0  402 -376.64324 -373.22809  0.91%     - 26869s
     0     0 -373.22809    0  412 -376.64324 -373.22809  0.91%     - 26869s
     0     0 -373.22809    0  415 -376.64324 -373.22809  0.91%     - 26869s
     0     0 -373.22809    0  404 -376.64324 -373.22809  0.91%     - 26870s
     0     0 -373.22809    0  409 -376.64324 -373.22809  0.91%     - 26870s
     0     0 -373.22809    0  364 -376.64324 -373.22809  0.91%     - 26870s
     0     0 -373.22809    0  415 -376.64324 -373.22809  0.91%     - 26871s
     0     0 -373.43950    0  422 -376.64324 -373.43950  0.85%     - 26871s
     0     0 -373.45461    0  424 -376.64324 -373.45461  0.85%     - 26871s
     0     0 -373.45461    0  421 -376.64324 -373.45461  0.85%     - 26871s
     0     0 -373.62449    0  393 -376.64324 -373.62449  0.80%     - 26871s
     0     0 -373.62449    0  411 -376.64324 -373.62449  0.80%     - 26871s
     0     0 -374.02090    0  421 -376.64324 -374.02090  0.70%     - 26872s
     0     0 -374.02090    0  421 -376.64324 -374.02090  0.70%     - 26872s
     0     0 -374.02090    0  422 -376.64324 -374.02090  0.70%     - 26872s
     0     0 -374.02090    0  422 -376.64324 -374.02090  0.70%     - 26872s
     0     0 -374.02090    0  397 -376.64324 -374.02090  0.70%     - 26872s
     0     0 -374.02090    0  420 -376.64324 -374.02090  0.70%     - 26872s
     0     0 -374.02090    0  416 -376.64324 -374.02090  0.70%     - 26873s
     0     0 -374.02090    0  402 -376.64324 -374.02090  0.70%     - 26874s
     0     2 -374.26480    0  402 -376.64324 -374.26480  0.63%     - 26874s
     8     6 -375.05761    5  175 -376.64324 -374.39231  0.60%  66.0 26875s

Cutting planes:
  Gomory: 4
  Zero half: 83

Explored 40 nodes (1047576 simplex iterations) in 26875.54 seconds
Thread count was 1 (of 80 available processors)

Solution count 10: -376.643 -376.643 -376.643 ... -423.758

Optimal solution found (tolerance 1.00e-04)
Best objective -3.766432374495e+02, best bound -3.766432374495e+02, gap 0.0000%
